Geographic Exponential Decay
20 17 242 311 139 10 267 307 171 120 134 301 83 261 100 294 15 3 23 227 154
p edge 320 636
e 0 52 2.0
e 1 297 19.0
e 1 34 9.0
e 1 208 20.0
e 1 316 17.0
e 1 298 16.0
e 1 157 31.0
e 1 222 30.0
e 1 315 32.0
e 1 313 10.0
e 2 288 6.0
e 2 105 5.0
e 3 31 24.0
e 3 281 2.0
e 3 57 4.0
e 3 132 76.0
e 3 84 99.0
e 3 170 88.0
e 3 271 18.0
e 3 111 75.0
e 3 297 18.0
e 3 220 30.0
e 3 282 87.0
e 3 240 98.0
e 3 247 50.0
e 3 136 79.0
e 3 287 71.0
e 3 47 66.0
e 3 38 63.0
e 4 114 41.0
e 4 284 16.0
e 4 66 28.0
e 4 55 47.0
e 4 159 43.0
e 4 128 23.0
e 4 251 27.0
e 4 241 28.0
e 4 252 46.0
e 5 281 2.0
e 6 269 4.0
e 7 116 6.0
e 8 230 1.0
e 8 229 2.0
e 9 99 10.0
e 9 182 16.0
e 9 145 16.0
e 9 18 10.0
e 9 169 2.0
e 10 93 62.0
e 10 27 3.0
e 10 68 67.0
e 10 221 29.0
e 10 33 4.0
e 10 20 6.0
e 10 165 53.0
e 10 238 49.0
e 10 230 38.0
e 10 233 68.0
e 10 256 5.0
e 10 69 58.0
e 10 188 65.0
e 10 213 33.0
e 10 134 4.0
e 10 239 15.0
e 10 203 21.0
e 11 145 2.0
e 11 225 4.0
e 12 21 1.0
e 13 185 5.0
e 14 61 4.0
e 14 65 3.0
e 15 101 38.0
e 15 43 92.0
e 15 177 38.0
e 15 315 59.0
e 15 190 47.0
e 15 42 94.0
e 15 142 92.0
e 15 197 70.0
e 15 199 21.0
e 15 93 38.0
e 15 312 68.0
e 15 220 81.0
e 15 87 34.0
e 15 287 51.0
e 15 164 91.0
e 15 86 84.0
e 15 31 69.0
e 16 212 9.0
e 17 3 63.0
e 17 15 55.0
e 17 124 72.0
e 17 242 12.0
e 17 276 53.0
e 17 99 93.0
e 17 256 47.0
e 17 35 67.0
e 17 55 98.0
e 17 213 8.0
e 17 33 14.0
e 17 24 75.0
e 17 239 76.0
e 17 172 49.0
e 17 171 96.0
e 17 192 82.0
e 17 254 16.0
e 19 214 11.0
e 21 135 4.0
e 22 318 3.0
e 23 302 76.0
e 23 31 63.0
e 23 10 27.0
e 23 7 79.0
e 23 95 31.0
e 23 307 91.0
e 23 259 53.0
e 23 181 14.0
e 23 53 13.0
e 23 131 43.0
e 23 156 82.0
e 23 220 56.0
e 23 160 56.0
e 23 99 28.0
e 23 98 75.0
e 23 230 30.0
e 23 208 60.0
e 25 121 1.0
e 26 94 1.0
e 27 154 9.0
e 27 281 20.0
e 27 127 24.0
e 27 292 7.0
e 28 29 5.0
e 29 298 4.0
e 30 156 2.0
e 32 137 11.0
e 36 134 61.0
e 36 229 2.0
e 36 239 3.0
e 37 79 3.0
e 37 12 5.0
e 38 210 9.0
e 38 20 4.0
e 39 305 2.0
e 40 73 6.0
e 41 91 2.0
e 43 6 5.0
e 43 99 1.0
e 44 202 5.0
e 44 183 4.0
e 45 24 5.0
e 45 262 3.0
e 46 30 1.0
e 48 82 1.0
e 49 1 49.0
e 50 169 5.0
e 51 307 70.0
e 51 252 4.0
e 53 271 10.0
e 53 215 1.0
e 54 241 1.0
e 56 11 5.0
e 58 115 2.0
e 58 74 2.0
e 59 148 3.0
e 60 22 2.0
e 62 97 2.0
e 62 302 22.0
e 62 34 17.0
e 62 220 14.0
e 62 54 18.0
e 63 10 64.0
e 63 157 4.0
e 64 286 2.0
e 65 237 1.0
e 67 218 2.0
e 70 142 21.0
e 70 4 12.0
e 70 101 22.0
e 70 152 10.0
e 70 153 19.0
e 71 157 6.0
e 72 259 1.0
e 72 56 5.0
e 73 295 3.0
e 75 91 2.0
e 76 142 1.0
e 77 290 8.0
e 78 185 24.0
e 78 130 2.0
e 80 318 1.0
e 81 193 1.0
e 83 308 41.0
e 83 77 62.0
e 83 302 59.0
e 83 98 33.0
e 83 182 28.0
e 83 148 89.0
e 83 178 68.0
e 83 24 1.0
e 83 40 93.0
e 83 130 16.0
e 83 114 63.0
e 83 102 42.0
e 83 33 36.0
e 83 238 49.0
e 83 126 56.0
e 83 5 51.0
e 83 244 21.0
e 85 189 3.0
e 87 101 2.0
e 87 58 1.0
e 88 277 5.0
e 88 37 4.0
e 89 160 2.0
e 90 290 19.0
e 90 233 2.0
e 90 80 10.0
e 92 173 1.0
e 92 197 1.0
e 94 157 3.0
e 94 1 45.0
e 96 293 21.0
e 96 232 14.0
e 96 104 9.0
e 96 215 10.0
e 96 23 2.0
e 97 109 1.0
e 97 309 5.0
e 100 231 97.0
e 100 59 14.0
e 100 3 68.0
e 100 239 42.0
e 100 291 26.0
e 100 258 23.0
e 100 271 77.0
e 100 82 91.0
e 100 85 15.0
e 100 126 13.0
e 100 240 74.0
e 100 76 66.0
e 100 216 17.0
e 100 62 51.0
e 100 45 92.0
e 100 289 100.0
e 100 306 77.0
e 103 74 2.0
e 105 153 7.0
e 105 95 3.0
e 106 233 6.0
e 107 238 1.0
e 108 214 11.0
e 108 195 1.0
e 109 146 6.0
e 109 150 8.0
e 110 265 5.0
e 112 81 2.0
e 113 99 4.0
e 116 59 15.0
e 116 221 22.0
e 116 35 12.0
e 116 170 21.0
e 117 187 2.0
e 118 67 2.0
e 119 139 81.0
e 119 247 2.0
e 119 191 4.0
e 120 295 80.0
e 120 190 35.0
e 120 184 6.0
e 120 318 33.0
e 120 12 61.0
e 120 287 20.0
e 120 142 52.0
e 120 307 18.0
e 120 78 53.0
e 120 187 73.0
e 120 76 46.0
e 120 75 30.0
e 120 235 3.0
e 120 60 34.0
e 120 89 24.0
e 120 56 34.0
e 120 141 77.0
e 122 114 2.0
e 123 31 5.0
e 124 98 7.0
e 124 118 1.0
e 125 293 1.0
e 128 108 2.0
e 129 281 9.0
e 129 100 3.0
e 129 265 1.0
e 131 279 18.0
e 131 67 10.0
e 131 182 9.0
e 131 10 68.0
e 132 105 10.0
e 133 290 7.0
e 133 0 5.0
e 133 289 22.0
e 134 172 34.0
e 134 183 22.0
e 134 38 43.0
e 134 5 54.0
e 134 1 12.0
e 134 222 38.0
e 134 149 39.0
e 134 26 86.0
e 134 282 88.0
e 134 238 73.0
e 134 74 31.0
e 134 309 31.0
e 134 48 7.0
e 134 27 88.0
e 134 91 1.0
e 137 130 6.0
e 137 23 39.0
e 138 226 1.0
e 138 227 85.0
e 139 310 22.0
e 139 131 31.0
e 139 304 39.0
e 139 12 54.0
e 139 203 20.0
e 139 38 39.0
e 139 59 60.0
e 139 273 67.0
e 139 145 52.0
e 139 149 54.0
e 139 54 89.0
e 139 123 10.0
e 139 276 28.0
e 139 240 95.0
e 139 236 29.0
e 139 96 33.0
e 140 235 5.0
e 143 58 3.0
e 143 282 10.0
e 143 29 1.0
e 144 13 1.0
e 144 316 1.0
e 147 310 1.0
e 147 235 5.0
e 148 185 3.0
e 150 28 5.0
e 151 245 8.0
e 151 283 10.0
e 151 267 70.0
e 151 35 14.0
e 151 185 4.0
e 152 243 15.0
e 152 171 56.0
e 152 219 11.0
e 152 24 2.0
e 154 246 53.0
e 154 14 12.0
e 154 69 54.0
e 154 214 17.0
e 154 280 14.0
e 154 282 12.0
e 154 26 59.0
e 154 186 66.0
e 154 258 39.0
e 154 226 18.0
e 154 241 97.0
e 154 16 94.0
e 154 309 100.0
e 154 181 80.0
e 154 17 3.0
e 154 279 9.0
e 155 270 1.0
e 158 283 4.0
e 158 107 8.0
e 158 304 2.0
e 161 121 8.0
e 161 122 1.0
e 161 34 5.0
e 162 48 1.0
e 163 228 12.0
e 163 153 2.0
e 163 88 2.0
e 164 166 2.0
e 165 221 3.0
e 166 315 5.0
e 167 36 10.0
e 168 72 2.0
e 168 149 3.0
e 171 219 18.0
e 171 123 79.0
e 171 30 54.0
e 171 81 69.0
e 171 33 61.0
e 171 151 77.0
e 171 62 84.0
e 171 124 40.0
e 171 16 39.0
e 171 75 26.0
e 171 283 12.0
e 171 46 25.0
e 171 175 51.0
e 171 309 97.0
e 171 244 85.0
e 174 117 2.0
e 176 30 1.0
e 177 197 37.0
e 177 167 2.0
e 177 105 13.0
e 177 5 31.0
e 177 234 15.0
e 177 265 47.0
e 177 154 52.0
e 177 222 47.0
e 178 35 3.0
e 178 21 9.0
e 179 198 5.0
e 179 112 6.0
e 180 246 6.0
e 180 27 1.0
e 184 22 5.0
e 184 79 7.0
e 185 87 18.0
e 188 302 1.0
e 192 96 10.0
e 192 112 3.0
e 192 15 28.0
e 192 19 4.0
e 194 277 1.0
e 194 14 3.0
e 196 141 1.0
e 199 280 7.0
e 199 31 6.0
e 200 4 33.0
e 200 56 35.0
e 200 28 1.0
e 200 65 28.0
e 200 297 9.0
e 200 20 24.0
e 200 278 38.0
e 200 51 28.0
e 200 294 86.0
e 201 159 1.0
e 202 46 2.0
e 203 243 5.0
e 203 101 22.0
e 203 29 16.0
e 204 224 13.0
e 205 32 7.0
e 205 49 7.0
e 205 269 4.0
e 206 169 6.0
e 207 175 1.0
e 209 225 3.0
e 211 191 1.0
e 212 273 3.0
e 212 50 8.0
e 217 203 18.0
e 217 81 5.0
e 223 202 1.0
e 224 293 21.0
e 224 310 17.0
e 224 77 7.0
e 224 82 23.0
e 225 171 6.0
e 227 213 82.0
e 227 124 16.0
e 227 172 10.0
e 227 168 57.0
e 227 16 49.0
e 227 261 15.0
e 227 263 87.0
e 227 120 6.0
e 227 2 30.0
e 227 203 29.0
e 227 3 34.0
e 227 75 98.0
e 227 224 80.0
e 227 251 90.0
e 227 14 3.0
e 227 305 76.0
e 231 284 3.0
e 232 303 2.0
e 234 223 11.0
e 234 173 4.0
e 240 264 1.0
e 240 294 75.0
e 242 191 9.0
e 242 312 75.0
e 242 183 49.0
e 242 186 21.0
e 242 285 68.0
e 242 106 79.0
e 242 261 72.0
e 242 41 9.0
e 242 2 87.0
e 242 252 44.0
e 242 72 14.0
e 242 182 13.0
e 242 80 20.0
e 242 221 71.0
e 242 297 59.0
e 242 209 98.0
e 245 137 9.0
e 245 85 18.0
e 245 116 5.0
e 245 200 41.0
e 248 27 10.0
e 248 154 100.0
e 249 102 1.0
e 250 13 1.0
e 253 235 1.0
e 253 48 3.0
e 254 86 4.0
e 255 139 31.0
e 257 186 19.0
e 257 153 1.0
e 257 303 22.0
e 257 191 23.0
e 257 311 10.0
e 260 147 1.0
e 261 17 95.0
e 261 20 100.0
e 261 109 87.0
e 261 88 58.0
e 261 106 19.0
e 261 234 9.0
e 261 311 64.0
e 261 300 82.0
e 261 128 86.0
e 261 202 20.0
e 261 21 13.0
e 261 268 98.0
e 261 159 38.0
e 261 164 55.0
e 261 288 99.0
e 263 307 56.0
e 266 132 2.0
e 267 198 57.0
e 267 150 34.0
e 267 117 99.0
e 267 118 21.0
e 267 165 3.0
e 267 290 64.0
e 267 128 57.0
e 267 34 96.0
e 267 121 22.0
e 267 46 30.0
e 267 90 39.0
e 267 196 31.0
e 267 54 3.0
e 267 225 27.0
e 267 222 16.0
e 267 0 37.0
e 268 52 4.0
e 269 251 9.0
e 272 258 4.0
e 274 234 4.0
e 274 144 8.0
e 274 259 1.0
e 275 303 4.0
e 275 43 2.0
e 285 245 12.0
e 285 2 12.0
e 289 214 12.0
e 289 84 8.0
e 289 97 9.0
e 290 67 22.0
e 291 53 4.0
e 294 19 51.0
e 294 43 78.0
e 294 206 21.0
e 294 86 99.0
e 294 109 26.0
e 294 180 13.0
e 294 115 57.0
e 294 272 70.0
e 294 91 51.0
e 294 71 31.0
e 294 287 48.0
e 294 275 74.0
e 294 92 58.0
e 294 181 32.0
e 294 137 35.0
e 296 13 1.0
e 299 29 1.0
e 301 76 79.0
e 301 310 47.0
e 301 50 88.0
e 301 270 82.0
e 301 253 58.0
e 301 42 20.0
e 301 225 13.0
e 301 40 64.0
e 301 187 11.0
e 301 146 70.0
e 301 201 42.0
e 301 210 73.0
e 301 292 38.0
e 301 15 42.0
e 301 223 42.0
e 301 117 41.0
e 301 51 7.0
e 307 89 3.0
e 307 97 18.0
e 307 296 14.0
e 307 40 54.0
e 307 288 47.0
e 307 36 2.0
e 307 131 65.0
e 307 242 12.0
e 307 152 45.0
e 307 286 6.0
e 307 47 91.0
e 307 163 33.0
e 307 41 99.0
e 311 223 3.0
e 311 262 44.0
e 311 310 50.0
e 311 207 67.0
e 311 156 37.0
e 311 183 58.0
e 311 166 21.0
e 311 288 27.0
e 311 253 90.0
e 311 98 73.0
e 311 0 13.0
e 311 53 64.0
e 311 73 9.0
e 311 157 39.0
e 311 258 46.0
e 314 240 25.0
e 314 243 1.0
e 314 68 10.0
e 317 82 2.0
e 319 315 3.0
e 319 125 1.0
